(set-logic QF_SLIA)
(set-option :produce-models true)
(declare-const X String)
; ^[^_][a-zA-Z0-9_]+[^_]@{1}[a-z]+[.]{1}(([a-z]{2,3})|([a-z]{2,3}[.]{1}[a-z]{2,3}))$
(assert (str.in_re X (re.++ (re.comp (str.to_re "_")) (re.+ (re.union (re.range "a" "z") (re.range "A" "Z") (re.range "0" "9") (str.to_re "_"))) (re.comp (str.to_re "_")) ((_ re.loop 1 1) (str.to_re "@")) (re.+ (re.range "a" "z")) ((_ re.loop 1 1) (str.to_re ".")) (re.union ((_ re.loop 2 3) (re.range "a" "z")) (re.++ ((_ re.loop 2 3) (re.range "a" "z")) ((_ re.loop 1 1) (str.to_re ".")) ((_ re.loop 2 3) (re.range "a" "z")))) (str.to_re "\u{0a}"))))
; Host\x3A.*www\u{2e}2-seek\u{2e}com\u{2f}search
(assert (str.in_re X (re.++ (str.to_re "Host:") (re.* re.allchar) (str.to_re "www.2-seek.com/search\u{0a}"))))
; /\s\:Hello everyone,\s.*?\shere\sand\si'm\shere\sand\sready\sto\sDDoS\./
(assert (str.in_re X (re.++ (str.to_re "/") (re.union (str.to_re " ") (str.to_re "\u{09}") (str.to_re "\u{0a}") (str.to_re "\u{0c}") (str.to_re "\u{0d}")) (str.to_re ":Hello everyone,") (re.union (str.to_re " ") (str.to_re "\u{09}") (str.to_re "\u{0a}") (str.to_re "\u{0c}") (str.to_re "\u{0d}")) (re.* re.allchar) (re.union (str.to_re " ") (str.to_re "\u{09}") (str.to_re "\u{0a}") (str.to_re "\u{0c}") (str.to_re "\u{0d}")) (str.to_re "here") (re.union (str.to_re " ") (str.to_re "\u{09}") (str.to_re "\u{0a}") (str.to_re "\u{0c}") (str.to_re "\u{0d}")) (str.to_re "and") (re.union (str.to_re " ") (str.to_re "\u{09}") (str.to_re "\u{0a}") (str.to_re "\u{0c}") (str.to_re "\u{0d}")) (str.to_re "i'm") (re.union (str.to_re " ") (str.to_re "\u{09}") (str.to_re "\u{0a}") (str.to_re "\u{0c}") (str.to_re "\u{0d}")) (str.to_re "here") (re.union (str.to_re " ") (str.to_re "\u{09}") (str.to_re "\u{0a}") (str.to_re "\u{0c}") (str.to_re "\u{0d}")) (str.to_re "and") (re.union (str.to_re " ") (str.to_re "\u{09}") (str.to_re "\u{0a}") (str.to_re "\u{0c}") (str.to_re "\u{0d}")) (str.to_re "ready") (re.union (str.to_re " ") (str.to_re "\u{09}") (str.to_re "\u{0a}") (str.to_re "\u{0c}") (str.to_re "\u{0d}")) (str.to_re "to") (re.union (str.to_re " ") (str.to_re "\u{09}") (str.to_re "\u{0a}") (str.to_re "\u{0c}") (str.to_re "\u{0d}")) (str.to_re "DDoS./\u{0a}"))))
; /^\u{2f}[a-z\u{2d}\u{5f}]{90,97}\.php$/U
(assert (str.in_re X (re.++ (str.to_re "//") ((_ re.loop 90 97) (re.union (re.range "a" "z") (str.to_re "-") (str.to_re "_"))) (str.to_re ".php/U\u{0a}"))))
(assert (< 200 (str.len X)))
(check-sat)
